p cnf 7230 17
-1544 -4569 0
1544 3816 3824 3848 -4568 0
1544 3820 3852 4566 0
-1544 -4567 0
-3816 -4569 0
-4572 -4573 0
-3820 -4567 0
-3824 -4569 0
4570 4571 0
3814 -4571 0
-3814 -4570 0
4568 4569 0
-4566 4567 0
-3852 -4567 0
-3848 -4569 0
-3818 4573 0
3818 -4573 0
